c ren 1 -> 1
c ren 2 -> 2
c ren 3 -> 3
c ren 4 -> 4
c ren 5 -> 5
c ren 6 -> 6
c ren 7 -> 7
c ren 8 -> 8
c ren 9 -> 9
c ren 10 -> 10
c ren 11 -> 11
c ren 12 -> 12
c ren 13 -> 13
c ren 14 -> 14
c ren 15 -> 15
c ren 16 -> 16
c ren 17 -> 17
c ren 18 -> 18
c ren 19 -> 19
c ren 20 -> 20
c ren 21 -> 21
c ren 22 -> 22
c ren 23 -> 23
c ren 24 -> 24
c ren 25 -> 25
c ren 26 -> 26
c ren 27 -> 27
c ren 28 -> 28
c ren 29 -> 29
c ren 30 -> 30
c ren 31 -> 31
c ren 32 -> 32
c ren 33 -> 33
c ren 34 -> 34
c ren 35 -> 35
c ren 36 -> 36
c ren 37 -> 37
c ren 38 -> 38
c ren 39 -> 39
c ren 40 -> 40
c ren 41 -> 41
c ren 42 -> 42
c ren 43 -> 43
c ren 44 -> 44
c ren 45 -> 45
c ren 46 -> 46
c ren 47 -> 47
c ren 48 -> 48
c ren 49 -> 49
c ren 50 -> 50
c ren 51 -> 51
c ren 52 -> 52
c ren 53 -> 53
c ren 54 -> 54
c ren 55 -> 55
c ren 56 -> 56
c ren 57 -> 57
c ren 58 -> 58
c ren 59 -> 59
c ren 60 -> 60
c ren 61 -> 61
c ren 65 -> 62
c ren 68 -> 63
c ren 72 -> 64
c ren 83 -> 65
c ren 84 -> 66
c ren 92 -> 67
c ren 95 -> 68
c ren 98 -> 69
c ren 102 -> 70
c ren 104 -> 71
c ren 106 -> 72
c ren 113 -> 73
c ren 114 -> 74
c ren 125 -> 75
c ren 136 -> 76
c ren 149 -> 77
c ren 152 -> 78
c ren 155 -> 79
c ren 164 -> 80
c ren 166 -> 81
c ren 173 -> 82
c ren 186 -> 83
c ren 191 -> 84
c ren 195 -> 85
c ren 197 -> 86
c ren 198 -> 87
c ren 199 -> 88
c ren 200 -> 89
c ren 201 -> 90
c ren 202 -> 91
c ren 203 -> 92
c ren 204 -> 93
c ren 205 -> 94
c ren 206 -> 95
c ren 207 -> 96
c ren 208 -> 97
c ren 235 -> 98
c ren 259 -> 99
c ren 270 -> 100
c ren 276 -> 101
c ren 285 -> 102
c ren 288 -> 103
c ren 289 -> 104
c ren 290 -> 105
c ren 291 -> 106
c ren 292 -> 107
c ren 293 -> 108
c ren 294 -> 109
c ren 295 -> 110
c ren 296 -> 111
c ren 297 -> 112
c ren 298 -> 113
c ren 299 -> 114
c ren 300 -> 115
c ren 301 -> 116
c ren 302 -> 117
c ren 303 -> 118
c ren 304 -> 119
c ren 305 -> 120
c ren 306 -> 121
c ren 307 -> 122
c ren 308 -> 123
c ren 309 -> 124
c ren 310 -> 125
c ren 311 -> 126
c ren 312 -> 127
p cnf 127 327
a 1 2 3 4 5 6 7 8 9 10 11 12 13 14 15 16 17 18 19 20 21 22 23 24 25 26 27 28 29 30 31 32 33 34 35 36 37 38 39 40 41 42 43 44 45 46 47 48 49 50 51 52 53 54 55 56 57 58 59 60 61 0
d 86 33 34 0
d 87 39 40 0
d 88 35 36 0
d 89 49 50 0
d 90 53 54 55 56 57 58 59 60 61 0
d 91 53 54 55 56 57 58 59 60 61 0
d 92 37 38 0
d 93 51 52 0
d 94 41 42 43 44 45 46 47 48 0
d 95 41 42 43 44 45 46 47 48 0
d 96 41 42 43 44 45 46 47 48 0
d 97 41 42 43 44 45 46 47 48 0
e 62 63 64 65 66 67 68 69 70 71 72 73 74 75 76 77 78 79 80 81 82 83 84 85 98 99 100 101 102 103 104 105 106 107 108 109 110 111 112 113 114 115 116 117 118 119 120 121 122 123 124 125 126 127 0
-11 62 63 66 67 68 69 -72 74 77 -82 84 0
11 -27 -85 0
-62 65 73 -83 -84 0
-10 -62 0
26 -62 0
10 -26 62 0
9 11 -26 -27 -65 0
-62 -85 0
27 62 63 66 67 68 69 -72 74 77 -82 84 0
-9 -63 0
25 -63 0
9 -25 63 0
9 -62 -65 0
-63 73 -83 -84 0
27 62 63 64 65 0
12 64 0
-28 64 0
-11 27 65 73 -83 -84 0
9 10 -27 -64 -65 0
9 10 11 -64 -65 0
-9 25 65 0
-63 -85 0
-11 62 63 64 65 0
-11 27 62 63 65 0
-63 -65 0
9 10 11 -27 -65 0
29 79 80 82 0
-10 26 65 73 -83 -84 0
10 11 -25 -27 -65 0
-12 -66 0
28 -66 0
-12 28 -64 0
64 -91 94 -100 -101 0
-66 -90 94 -100 -101 0
-10 26 63 65 0
11 -27 65 73 -83 -84 0
-5 21 -98 0
-77 -85 0
-7 -67 0
23 -67 0
7 -23 67 0
-7 23 -71 0
-67 73 -83 -84 0
-6 -68 0
22 -68 0
-3 -17 19 77 -83 0
5 68 69 70 87 -100 0
-91 94 -95 -100 -101 0
-5 -69 0
21 -69 0
-69 -83 -84 0
-70 -72 -88 -92 100 0
8 70 0
-24 70 0
7 71 0
-23 71 0
6 72 0
-22 72 0
5 68 69 -70 -72 74 87 98 0
-5 21 73 0
-68 73 -83 -84 0
-21 68 69 -70 -72 74 87 98 0
-67 -85 0
71 73 -83 -84 0
-21 -70 -71 -72 -73 0
72 -90 -100 -101 0
-5 21 -85 0
5 -70 -71 -72 -73 0
-72 -87 -88 -92 100 0
72 -91 -100 -101 0
-8 -74 0
24 -74 0
70 73 -83 -84 0
-21 69 72 73 0
-68 -98 0
68 69 71 73 0
-74 -98 0
5 -68 -73 0
-5 21 -88 100 0
-11 -13 32 62 63 65 66 67 68 69 -70 -72 73 74 77 78 79 82 -83 85 0
1 3 -20 -76 83 0
-3 -4 17 -19 -20 75 -76 -77 0
3 4 -17 -20 -76 77 0
-3 4 17 20 75 -76 -77 0
1 4 -19 -20 -76 77 0
-2 -75 0
18 -75 0
2 -18 75 0
-2 18 -76 0
-1 76 -83 0
3 -17 -19 -76 83 0
-3 19 -76 77 -83 0
-1 3 4 19 20 75 -76 -77 0
3 -17 -19 -76 77 0
1 -17 83 0
-1 -3 4 -19 20 75 -76 -77 0
17 76 -83 0
2 76 0
-18 76 0
1 3 -19 -76 83 0
-1 17 -83 0
1 -3 19 -76 -77 83 0
1 3 -19 -76 77 0
-3 17 19 75 -76 -83 0
1 4 -20 77 -83 0
-4 17 19 20 75 -83 0
-1 -3 -4 -19 20 75 -83 0
3 -17 -20 -76 83 0
-1 -3 -4 -19 -20 75 -76 -77 0
-3 -4 17 20 75 -83 0
1 -75 77 0
1 4 -19 -76 83 0
-17 -75 83 0
3 4 -17 -76 83 0
3 -4 17 19 -20 75 -76 -77 0
-17 -75 77 0
1 -17 77 0
-3 -17 19 -76 -77 83 0
4 17 19 20 75 -76 -77 0
-1 17 -77 0
-1 3 -4 19 20 75 -83 0
-1 3 -4 19 -20 75 -76 -77 0
1 -19 -20 -76 83 0
1 3 4 -20 -76 77 0
-77 -83 -84 0
-15 -78 0
31 -78 0
15 -31 78 0
-15 31 -80 0
-14 -79 0
30 -79 0
-14 30 -81 0
-13 81 82 0
13 -29 -89 -99 0
13 -32 -80 -81 -82 0
-73 77 84 0
16 -80 -81 -89 -99 0
-13 -16 27 62 63 65 66 67 68 69 -72 73 74 77 78 79 82 -83 85 0
15 80 0
-31 80 0
14 81 0
-30 81 0
13 -78 -81 -82 0
-13 29 82 0
-13 -29 81 99 0
-16 29 32 78 79 82 0
5 -67 -72 -73 0
81 -85 -102 0
-78 -85 0
-29 -79 -82 0
13 -29 -82 0
-13 29 -89 -99 0
71 -85 0
-79 -81 -89 -99 0
10 11 -25 -64 -65 0
72 -98 0
16 -29 -80 -81 -82 0
-11 29 32 62 63 65 66 67 68 69 -70 -72 73 74 77 78 79 82 -83 85 0
80 -85 0
-85 -93 -102 0
-82 -85 0
9 11 -26 -64 -65 0
1 3 4 -76 83 0
1 -75 83 0
83 -85 0
13 29 79 80 99 0
65 73 82 -83 -84 0
-13 -16 -29 32 79 93 99 0
-65 -85 0
-73 -85 0
83 84 0
-66 -91 94 -100 -101 0
-11 27 -85 0
5 68 69 92 -100 0
-90 -91 -94 -98 101 0
65 -66 73 -83 -84 0
-69 -98 0
-11 -13 -16 62 63 65 66 67 68 69 -72 73 74 77 78 79 82 -83 85 0
-69 -73 0
12 -28 66 0
13 -79 -82 0
10 -25 -27 -64 -65 0
-85 -95 -102 0
-90 94 -97 -100 -101 0
-91 94 -97 -100 -101 0
13 -16 29 -64 66 79 85 90 91 93 94 95 96 97 -98 99 -100 -102 0
6 -22 68 0
-6 22 -72 0
-85 90 -91 -102 0
5 -21 69 0
-21 -68 -73 0
-5 21 -91 -100 -101 0
-90 94 -96 -100 -101 0
-85 -94 -102 0
-8 24 -70 0
67 68 69 70 73 0
-68 -90 -100 -101 0
-21 69 72 -100 0
-68 -91 -100 -101 0
-69 -91 -100 -101 0
-21 68 69 70 87 -100 0
5 69 72 -100 0
72 73 -83 -84 0
8 -24 74 0
-87 -98 0
-68 -88 100 0
-69 -88 100 0
-5 21 -90 -100 -101 0
-69 -90 -100 -101 0
-91 98 -100 -101 0
-85 100 -102 0
-90 91 -101 0
4 -17 -19 -76 83 0
-13 -16 -29 -64 66 79 85 90 91 93 94 95 96 97 -98 99 -100 -102 0
90 -91 -101 0
13 29 32 -64 66 79 85 -90 -91 93 94 95 96 97 -98 99 -100 -102 0
14 -30 79 0
13 -16 29 32 79 93 99 0
-13 -29 32 -64 66 79 85 -90 -91 93 94 95 96 97 -98 99 -100 -102 0
-13 -29 79 80 99 0
-80 -81 -89 -93 -99 0
13 16 -80 -81 -82 0
-32 -80 -81 -89 -99 0
89 99 0
-13 27 32 62 63 65 66 67 68 69 -72 73 74 77 78 79 82 -83 85 0
73 -74 -83 -84 0
-13 29 -85 0
-29 -78 -81 -82 0
-70 -85 -92 98 -102 0
29 81 82 0
70 -98 0
-64 66 -90 -91 95 96 97 -98 -99 101 0
-90 94 -95 -100 -101 0
-90 98 -100 -101 0
-85 -96 -102 0
90 91 101 0
-91 94 99 -100 -101 0
-21 68 69 92 -100 0
-85 -90 91 -102 0
-65 67 68 69 -72 74 77 84 0
-91 94 -96 -100 -101 0
88 -100 0
-90 94 99 -100 -101 0
-1 -3 19 75 -76 -83 0
-85 -97 -102 0
64 65 73 -83 -84 0
-85 -99 -102 0
-90 -91 100 101 0
84 -101 -102 0
-84 101 -102 0
64 -90 94 -100 -101 0
5 69 72 73 0
-3 -19 -33 -34 -60 -61 102 103 104 105 106 107 108 109 110 111 112 113 114 115 116 117 118 119 120 121 122 123 124 125 126 127 0
11 -25 -26 -27 -65 0
13 29 81 99 0
3 19 33 34 60 61 102 103 104 105 106 107 108 109 110 111 112 113 114 115 116 117 118 119 120 121 122 123 124 125 126 127 0
3 -19 33 -34 60 -61 102 103 104 105 106 107 108 109 110 111 112 113 114 115 116 117 118 119 120 121 122 123 124 125 126 127 0
-5 -35 -103 0
5 35 -103 0
-21 -36 -104 0
11 -25 -26 -64 -65 0
21 36 -104 0
-7 -37 -105 0
7 37 -105 0
-23 -38 -106 0
-85 -87 -92 -102 0
23 38 -106 0
-7 -39 -107 0
4 -17 -19 -20 -76 77 0
7 39 -107 0
-23 -40 -108 0
23 40 -108 0
-11 -41 -109 0
11 41 -109 0
-27 -42 -110 0
27 42 -110 0
-10 -43 -111 0
10 43 -111 0
-26 -44 -112 0
26 44 -112 0
-9 -45 -113 0
9 45 -113 0
-25 -46 -114 0
13 -16 29 -64 66 79 85 -90 -91 93 94 95 96 97 -98 99 -100 -102 0
-25 -26 -27 -64 -65 0
25 46 -114 0
-12 -47 -115 0
12 47 -115 0
-28 -48 -116 0
28 48 -116 0
-13 -49 -117 0
-11 -16 29 62 63 65 66 67 68 69 -71 -72 73 74 77 78 79 82 -83 85 0
-16 27 29 62 63 65 66 67 68 69 -72 73 74 77 78 79 82 -83 85 0
13 49 -117 0
-29 -50 -118 0
9 -26 -27 -64 -65 0
29 50 -118 0
-15 -51 -119 0
15 51 -119 0
-31 -52 -120 0
-25 -62 -65 0
-13 -16 -29 -64 66 79 85 -90 -91 93 94 95 96 97 -98 99 -100 -102 0
31 52 -120 0
-53 -86 -121 0
53 86 -121 0
-2 -54 -122 0
2 54 -122 0
-18 -55 -123 0
-21 -67 -72 -73 0
18 55 -123 0
-1 -56 -124 0
1 56 -124 0
-17 -57 -125 0
4 -20 -76 77 -83 0
17 57 -125 0
-4 -58 -126 0
-17 -19 -20 -76 83 0
4 58 -126 0
-20 -59 -127 0
20 59 -127 0
27 29 32 62 63 65 66 67 68 69 -72 73 74 77 78 79 82 -83 85 0
13 29 32 -64 66 79 85 90 91 93 94 95 96 97 -98 99 -100 -102 0
-29 -32 -80 -81 -82 0
-13 -16 32 78 79 82 0
-13 -29 32 -64 66 79 85 90 91 93 94 95 96 97 -98 99 -100 -102 0
-3 19 -33 34 -60 61 102 103 104 105 106 107 108 109 110 111 112 113 114 115 116 117 118 119 120 121 122 123 124 125 126 127 0
-13 79 80 82 0
